unsat
((set-logic NIA)
(declare-fun s!1 () Int)
(declare-fun r!2 () Int)
(declare-fun x!0 () Int)
(proof
(let ((?x1161 (* r!2 s!1)))
 (let ((?x435 (* 2 ?x1161)))
 (let ((?x1188 (* 6 x!0)))
 (let ((?x1241 (* (- 3) s!1)))
 (let ((?x1243 (* 3 r!2)))
 (let ((?x433 (* r00 r00 r00)))
 (let ((?x434 (* 12 ?x433)))
 (let ((?x390 (* s00 r00)))
 (let ((?x468 (* (- 6) ?x390)))
 (let ((?x465 (* (- 6) x00)))
 (let ((?x464 (* (- 3) r00)))
 (let ((?x44 (* 3 s00)))
 (let ((?x974 (+ ?x44 ?x464 ?x465 ?x468 ?x434 (* 4 (* s00 r!2)) ?x1243 (* (- 12) (* r00 r00 r!2)) ?x1241 ?x1188 ?x435)))
 (let (($x980 (>= ?x974 0)))
 (let (($x995 (= ?x974 0)))
 (let ((?x491 (* (- 2) ?x1161)))
 (let ((?x895 (* (- 6) x!0)))
 (let ((?x891 (* 7 s!1)))
 (let ((?x892 (* (- 3) r!2)))
 (let ((?x639 (* r!2 r!2)))
 (let ((?x898 (* (- 12) ?x639)))
 (let ((?x447 (* (- 12) ?x433)))
 (let ((?x391 (* 6 ?x390)))
 (let ((?x263 (* r00 r00)))
 (let ((?x1392 (* 12 ?x263)))
 (let ((?x59 (* 6 x00)))
 (let ((?x48 (* 3 r00)))
 (let ((?x1530 (* (- 7) s00)))
 (let ((?x681 (+ ?x1530 ?x48 ?x59 ?x1392 ?x391 ?x447 (* (- 4) (* s00 r!2)) ?x898 ?x892 (* 12 (* r00 r00 r!2)) ?x891 ?x895 ?x491)))
 (let ((?x878 (+ 3 (* 6 r!2) s!1)))
 (let ((?x868 (+ (- 1) (* (+ (* (- 1) s!1) x!0) ?x878 ?x878 ?x878))))
 (let ((?x1439 (* ?x868 ?x681)))
 (let (($x482 (= ?x1439 0)))
 (let (($x1552 (not $x482)))
 (let ((?x1310 (* x00 x00)))
 (let ((?x1204 (* 108 ?x1310)))
 (let ((?x1148 (* s00 s00 s00)))
 (let ((?x715 (* 16 ?x1148)))
 (let ((?x1042 (* r00 r00 s!1)))
 (let ((?x801 (* 36 ?x1042)))
 (let ((?x1401 (* (- 9) s!1)))
 (let ((?x846 (* r00 r00 r00 x00)))
 (let ((?x812 (* (- 432) ?x846)))
 (let ((?x769 (* s00 x00)))
 (let ((?x836 (* (- 108) ?x769)))
 (let ((?x611 (* s00 r00 r00)))
 (let ((?x1132 (* (- 36) ?x611)))
 (let ((?x555 (* s00 s00)))
 (let ((?x872 (* 51 ?x555)))
 (let ((?x486 (* r00 x00)))
 (let ((?x343 (* 108 ?x486)))
 (let ((?x137 (* 9 s00)))
 (let ((?x1595 (+ ?x137 (* (- 4) (* s!1 s!1 s!1)) (* 36 (* r00 r00 s!1 s!1)) (* (- 54) ?x390) (* 216 (* s00 r00 x00)) ?x343 ?x872 ?x1132 (* (- 108) (* s00 s00 r00)) (* (- 216) (* x00 x!0)) (* (- 36) (* s00 s00 r00 r00)) ?x836 (* 54 (* r00 s!1)) ?x812 ?x1401 (* 15 (* s!1 s!1)) (* 108 (* s00 x!0)) (* (- 108) (* r00 x!0)) (* (- 12) (* s00 s!1 s!1)) (* 432 (* r00 r00 r00 x!0)) (* 108 (* s00 r00 s!1)) (* (- 216) (* s00 r00 x!0)) (* 216 (* s00 r00 r00 r00)) ?x801 ?x715 (* 108 (* x!0 x!0)) ?x1204 (* 108 (* x00 s!1)) (* (- 108) (* s!1 x!0)) (* (- 216) (* r00 r00 r00 s!1)) (* (- 66) (* s00 s!1)))))
 (let ((?x841 (* r00 r00 x00)))
 (let ((?x1081 (* 36 ?x841)))
 (let ((?x1067 (* (- 6) ?x769)))
 (let ((?x1083 (* 15 ?x555)))
 (let ((?x1567 (* 54 ?x486)))
 (let ((?x553 (+ ?x137 (* (- 36) (* r00 r00 x!0)) (* (- 24) ?x390) (* 36 (* r00 x00 r!2)) (* (- 2) (* s00 r!2 s!1)) ?x1567 ?x1083 (* (- 24) (* s00 r!2)) ?x1132 (* 2 (* s00 s00 r00)) (* (- 2) (* r!2 s!1 s!1)) ?x1067 (* 54 (* x00 r!2)) (* (- 4) (* r00 s!1 s!1)) ?x1081 (* 24 (* r00 s!1)) (* (- 54) (* r!2 x!0)) ?x1401 (* (- 3) (* s!1 s!1)) (* 6 (* s00 x!0)) (* (- 54) (* r00 x!0)) (* (- 36) (* r00 r!2 x!0)) (* 2 (* s00 r00 s!1)) ?x801 (* 24 ?x1161) (* 6 (* x00 s!1)) (* (- 6) (* s!1 x!0)) (* 4 (* s00 s00 r!2)) (* (- 12) (* s00 s!1)))))
 (let ((?x1066 (* 4 ?x555)))
 (let ((?x1174 (* 18 ?x486)))
 (let ((?x1366 (+ ?x44 (* (- 9) ?x390) ?x1174 ?x1066 (* 6 (* s00 r00 r!2)) (* (- 9) (* s00 r!2)) (* (- 6) ?x611) (* 18 (* x00 r!2)) (* 9 (* r00 s!1)) (* (- 18) (* r!2 x!0)) ?x1241 (* (- 2) (* s!1 s!1)) (* (- 18) (* r00 x!0)) (* 6 ?x1042) (* (- 6) (* r00 r!2 s!1)) (* 9 ?x1161) (* (- 2) (* s00 s!1)))))
 (let ((?x877 (* (- 1) s!1)))
 (let ((?x957 (* (- 3) ?x263)))
 (let ((?x284 (+ s00 ?x957 (* 3 ?x639) ?x877)))
 (let (($x503 (= ?x284 0)))
 (let (($x900 (and $x503 $x995 (= ?x1366 0) (= ?x553 0) (= ?x1595 0) $x1552)))
 (let ((?x897 (+ ?x892 ?x891 ?x895 ?x1530 ?x48 ?x59 ?x898 ?x1392 ?x491 (* 12 (* r!2 r00 r00)) (* (- 4) (* r!2 s00)) ?x391 ?x447)))
 (let ((?x1340 (* (- 108) ?x1310)))
 (let ((?x1339 (* (- 16) ?x1148)))
 (let ((?x1020 (* s00 r00 r00 r00)))
 (let ((?x1335 (* (- 216) ?x1020)))
 (let ((?x847 (* 432 ?x846)))
 (let ((?x1093 (* 108 ?x769)))
 (let ((?x695 (* s00 s00 r00 r00)))
 (let ((?x696 (* 36 ?x695)))
 (let ((?x632 (* s00 s00 r00)))
 (let ((?x976 (* 108 ?x632)))
 (let ((?x964 (* 36 ?x611)))
 (let ((?x1329 (* (- 51) ?x555)))
 (let ((?x587 (* s!1 r00 r00)))
 (let ((?x1446 (* (- 36) ?x587)))
 (let ((?x1326 (* (- 108) ?x486)))
 (let ((?x477 (* s00 r00 x00)))
 (let ((?x1325 (* (- 216) ?x477)))
 (let ((?x484 (* 54 ?x390)))
 (let ((?x951 (* (- 9) s00)))
 (let ((?x979 (* 9 s!1)))
 (let ((?x545 (+ ?x979 ?x951 ?x484 ?x1325 ?x1326 (* (- 15) (* s!1 s!1)) ?x1446 ?x1329 (* (- 108) (* x!0 s00)) (* 108 (* x!0 r00)) (* 216 (* s!1 r00 r00 r00)) ?x964 ?x976 (* 66 (* s!1 s00)) (* (- 54) (* s!1 r00)) (* (- 108) (* s!1 x00)) ?x696 (* (- 108) (* s!1 s00 r00)) (* 4 (* s!1 s!1 s!1)) ?x1093 (* 108 (* s!1 x!0)) (* (- 108) (* x!0 x!0)) ?x847 (* 12 (* s!1 s!1 s00)) ?x1335 (* (- 432) (* x!0 r00 r00 r00)) (* 216 (* x!0 s00 r00)) (* (- 36) (* s!1 s!1 r00 r00)) ?x1339 (* 216 (* x!0 x00)) ?x1340)))
 (let ((?x854 (* (- 36) ?x841)))
 (let ((?x770 (* 6 ?x769)))
 (let ((?x660 (* (- 2) ?x632)))
 (let ((?x880 (* (- 15) ?x555)))
 (let ((?x515 (* (- 54) ?x486)))
 (let ((?x528 (* 24 ?x390)))
 (let ((?x324 (+ ?x979 ?x951 (* (- 24) ?x1161) (* 24 (* r!2 s00)) ?x528 ?x515 (* 3 (* s!1 s!1)) (* 54 (* r!2 x!0)) (* 36 (* r!2 x!0 r00)) ?x1446 ?x880 (* (- 6) (* x!0 s00)) (* 54 (* x!0 r00)) ?x964 (* 4 (* s!1 s!1 r00)) (* (- 54) (* r!2 x00)) ?x660 (* 12 (* s!1 s00)) (* (- 24) (* s!1 r00)) (* (- 6) (* s!1 x00)) (* (- 2) (* s!1 s00 r00)) ?x770 (* 2 (* r!2 s!1 s!1)) (* 6 (* s!1 x!0)) (* (- 4) (* r!2 s00 s00)) ?x854 (* 2 (* r!2 s!1 s00)) (* (- 36) (* r!2 r00 x00)) (* 36 (* x!0 r00 r00)))))
 (let ((?x612 (* 6 ?x611)))
 (let ((?x568 (* (- 4) ?x555)))
 (let ((?x500 (* (- 18) ?x486)))
 (let ((?x505 (* 9 ?x390)))
 (let ((?x342 (* (- 3) s00)))
 (let ((?x641 (+ (* 3 s!1) ?x342 (* (- 9) ?x1161) (* 9 (* r!2 s00)) ?x505 ?x500 (* 2 (* s!1 s!1)) (* 18 (* r!2 x!0)) (* 6 (* r!2 s!1 r00)) (* (- 6) ?x587) ?x568 (* 18 (* x!0 r00)) ?x612 (* (- 18) (* r!2 x00)) (* 2 (* s!1 s00)) (* (- 9) (* s!1 r00)) (* (- 6) (* r!2 s00 r00)))))
 (let ((?x790 (+ ?x1243 ?x1241 ?x1188 ?x44 ?x464 ?x465 ?x435 (* (- 12) (* r!2 r00 r00)) (* 4 (* r!2 s00)) ?x468 ?x434)))
 (let (($x779 (and (= (+ s!1 (* (- 1) s00) (* (- 3) ?x639) (* 3 ?x263)) 0) (= ?x790 0) (= ?x641 0) (= ?x324 0) (= ?x545 0) (not (= (* ?x868 ?x897) 0)))))
 (let (($x595 (exists ((r Int) (s Int) (x Int) )(! (let ((?x433 (* r00 r00 r00)))
 (let ((?x447 (* (- 12) ?x433)))
 (let ((?x390 (* s00 r00)))
 (let ((?x391 (* 6 ?x390)))
 (let ((?x363 (* r s00)))
 (let ((?x377 (* (- 4) ?x363)))
 (let ((?x313 (* r r00 r00)))
 (let ((?x314 (* 12 ?x313)))
 (let ((?x307 (* r s)))
 (let ((?x308 (* (- 2) ?x307)))
 (let ((?x263 (* r00 r00)))
 (let ((?x1392 (* 12 ?x263)))
 (let ((?x59 (* 6 x00)))
 (let ((?x48 (* 3 r00)))
 (let ((?x1530 (* (- 7) s00)))
 (let ((?x412 (* (- 6) x)))
 (let ((?x1592 (* 7 s)))
 (let ((?x954 (* (- 3) r)))
 (let ((?x386 (+ ?x954 ?x1592 ?x412 ?x1530 ?x48 ?x59 (* (- 12) (* r r)) ?x1392 ?x308 ?x314 ?x377 ?x391 ?x447)))
 (let ((?x213 (* 6 r)))
 (let ((?x1350 (+ 3 ?x213 s)))
 (let ((?x242 (* (- 1) s)))
 (let ((?x1549 (+ ?x242 x)))
 (let ((?x1310 (* x00 x00)))
 (let ((?x1340 (* (- 108) ?x1310)))
 (let ((?x1148 (* s00 s00 s00)))
 (let ((?x1339 (* (- 16) ?x1148)))
 (let ((?x1020 (* s00 r00 r00 r00)))
 (let ((?x1335 (* (- 216) ?x1020)))
 (let ((?x846 (* r00 r00 r00 x00)))
 (let ((?x847 (* 432 ?x846)))
 (let ((?x769 (* s00 x00)))
 (let ((?x1093 (* 108 ?x769)))
 (let ((?x695 (* s00 s00 r00 r00)))
 (let ((?x696 (* 36 ?x695)))
 (let ((?x632 (* s00 s00 r00)))
 (let ((?x976 (* 108 ?x632)))
 (let ((?x611 (* s00 r00 r00)))
 (let ((?x964 (* 36 ?x611)))
 (let ((?x555 (* s00 s00)))
 (let ((?x1329 (* (- 51) ?x555)))
 (let ((?x529 (* s r00 r00)))
 (let ((?x828 (* (- 36) ?x529)))
 (let ((?x486 (* r00 x00)))
 (let ((?x1326 (* (- 108) ?x486)))
 (let ((?x477 (* s00 r00 x00)))
 (let ((?x1325 (* (- 216) ?x477)))
 (let ((?x484 (* 54 ?x390)))
 (let ((?x951 (* (- 9) s00)))
 (let ((?x143 (* 9 s)))
 (let ((?x1341 (+ ?x143 ?x951 ?x484 ?x1325 ?x1326 (* (- 15) (* s s)) ?x828 ?x1329 (* (- 108) (* x s00)) (* 108 (* x r00)) (* 216 (* s r00 r00 r00)) ?x964 ?x976 (* 66 (* s s00)) (* (- 54) (* s r00)) (* (- 108) (* s x00)) ?x696 (* (- 108) (* s s00 r00)) (* 4 (* s s s)) ?x1093 (* 108 (* s x)) (* (- 108) (* x x)) ?x847 (* 12 (* s s s00)) ?x1335 (* (- 432) (* x r00 r00 r00)) (* 216 (* x s00 r00)) (* (- 36) (* s s r00 r00)) ?x1339 (* 216 (* x x00)) ?x1340)))
 (let (($x1342 (= ?x1341 0)))
 (let ((?x841 (* r00 r00 x00)))
 (let ((?x854 (* (- 36) ?x841)))
 (let ((?x770 (* 6 ?x769)))
 (let ((?x660 (* (- 2) ?x632)))
 (let ((?x880 (* (- 15) ?x555)))
 (let ((?x509 (* s s)))
 (let ((?x533 (* 3 ?x509)))
 (let ((?x515 (* (- 54) ?x486)))
 (let ((?x528 (* 24 ?x390)))
 (let ((?x1043 (+ ?x143 ?x951 (* (- 24) ?x307) (* 24 ?x363) ?x528 ?x515 ?x533 (* 54 (* r x)) (* 36 (* r x r00)) ?x828 ?x880 (* (- 6) (* x s00)) (* 54 (* x r00)) ?x964 (* 4 (* s s r00)) (* (- 54) (* r x00)) ?x660 (* 12 (* s s00)) (* (- 24) (* s r00)) (* (- 6) (* s x00)) (* (- 2) (* s s00 r00)) ?x770 (* 2 (* r s s)) (* 6 (* s x)) (* (- 4) (* r s00 s00)) ?x854 (* 2 (* r s s00)) (* (- 36) (* r r00 x00)) (* 36 (* x r00 r00)))))
 (let (($x1048 (= ?x1043 0)))
 (let ((?x612 (* 6 ?x611)))
 (let ((?x568 (* (- 4) ?x555)))
 (let ((?x510 (* 2 ?x509)))
 (let ((?x500 (* (- 18) ?x486)))
 (let ((?x505 (* 9 ?x390)))
 (let ((?x342 (* (- 3) s00)))
 (let ((?x47 (* 3 s)))
 (let ((?x709 (+ ?x47 ?x342 (* (- 9) ?x307) (* 9 ?x363) ?x505 ?x500 ?x510 (* 18 (* r x)) (* 6 (* r s r00)) (* (- 6) ?x529) ?x568 (* 18 (* x r00)) ?x612 (* (- 18) (* r x00)) (* 2 (* s s00)) (* (- 9) (* s r00)) (* (- 6) (* r s00 r00)))))
 (let (($x716 (= ?x709 0)))
 (let ((?x434 (* 12 ?x433)))
 (let ((?x468 (* (- 6) ?x390)))
 (let ((?x465 (* (- 6) x00)))
 (let ((?x464 (* (- 3) r00)))
 (let ((?x44 (* 3 s00)))
 (let ((?x56 (* 6 x)))
 (let ((?x463 (* (- 3) s)))
 (let ((?x43 (* 3 r)))
 (let ((?x469 (+ ?x43 ?x463 ?x56 ?x44 ?x464 ?x465 (* 2 ?x307) (* (- 12) ?x313) (* 4 ?x363) ?x468 ?x434)))
 (let (($x470 (= ?x469 0)))
 (let (($x296 (= (+ s (* (- 1) s00) (* (- 3) (* r r)) (* 3 ?x263)) 0)))
 (and $x296 $x470 $x716 $x1048 $x1342 (not (= (* (+ (- 1) (* ?x1549 ?x1350 ?x1350 ?x1350)) ?x386) 0)))))))))))))))))))))))))))))))))))))))))))))))))))))))))))))))))))))))))))))))))))))) :qid k!35))
 ))
 (let (($x704 (exists ((r Int) (s Int) (x Int) )(! (let ((?x433 (* r00 r00 r00)))
 (let ((?x447 (* (- 12) ?x433)))
 (let ((?x59 (* 6 x00)))
 (let ((?x412 (* (- 6) x)))
 (let ((?x1305 (* r00 s00)))
 (let ((?x1306 (* 6 ?x1305)))
 (let ((?x48 (* 3 r00)))
 (let ((?x143 (* 9 s)))
 (let ((?x342 (* (- 3) s00)))
 (let ((?x1038 (+ 6 (* (- 2) (* (+ 1 r) (+ 3 s (* 6 r)))) (* 12 (* r00 r00 (+ 1 r))) (* 15 r) ?x342 ?x143 ?x48 (* (- 4) (* s00 (+ 1 r))) ?x1306 ?x412 ?x59 ?x447)))
 (let ((?x213 (* 6 r)))
 (let ((?x1297 (+ 3 s ?x213)))
 (let (($x1054 (= (* (+ (- 1) (* (+ x (* (- 1) s)) ?x1297 ?x1297 ?x1297)) ?x1038) 0)))
 (let (($x860 (not $x1054)))
 (let ((?x1310 (* x00 x00)))
 (let ((?x1204 (* 108 ?x1310)))
 (let ((?x1104 (* (- 9) s)))
 (let ((?x857 (* r00 r00 s00)))
 (let ((?x1065 (* (- 36) ?x857)))
 (let ((?x137 (* 9 s00)))
 (let ((?x555 (* s00 s00)))
 (let ((?x872 (* 51 ?x555)))
 (let ((?x494 (* r00 r00 s)))
 (let ((?x1136 (* 36 ?x494)))
 (let ((?x1148 (* s00 s00 s00)))
 (let ((?x715 (* 16 ?x1148)))
 (let ((?x769 (* s00 x00)))
 (let ((?x836 (* (- 108) ?x769)))
 (let ((?x846 (* r00 r00 r00 x00)))
 (let ((?x812 (* (- 432) ?x846)))
 (let ((?x486 (* r00 x00)))
 (let ((?x343 (* 108 ?x486)))
 (let ((?x1221 (+ (* 216 (* r00 s00 x00)) ?x343 (* (- 54) ?x1305) (* 15 (* s s)) (* (- 216) (* r00 r00 r00 s)) (* (- 36) (* r00 r00 s00 s00)) (* (- 4) (* s s s)) (* 108 (* x x)) ?x812 (* (- 12) (* s00 s s)) (* 108 (* s00 x)) (* (- 108) (* r00 s00 s00)) (* 216 (* r00 r00 r00 s00)) (* 108 (* x00 s)) (* 432 (* r00 r00 r00 x)) (* (- 66) (* s00 s)) (* 108 (* r00 s00 s)) ?x836 (* (- 216) (* r00 s00 x)) (* 36 (* r00 r00 s s)) ?x715 (* (- 108) (* x s)) ?x1136 ?x872 (* (- 108) (* r00 x)) ?x137 ?x1065 ?x1104 (* 54 (* r00 s)) (* (- 216) (* x00 x)) ?x1204)))
 (let (($x1227 (= ?x1221 0)))
 (let ((?x1083 (* 15 ?x555)))
 (let ((?x841 (* r00 r00 x00)))
 (let ((?x1081 (* 36 ?x841)))
 (let ((?x1067 (* (- 6) ?x769)))
 (let ((?x1567 (* 54 ?x486)))
 (let ((?x712 (+ (* 24 (* s r)) ?x1567 (* (- 36) (* r00 x r)) (* (- 24) ?x1305) (* (- 3) (* s s)) (* (- 54) (* x r)) (* 6 (* s00 x)) (* (- 4) (* r00 s s)) (* 2 (* r00 s00 s00)) (* 6 (* x00 s)) (* (- 12) (* s00 s)) (* 2 (* r00 s00 s)) ?x1067 (* (- 2) (* s s r)) (* (- 6) (* x s)) (* 4 (* s00 s00 r)) ?x1136 ?x1081 ?x1083 (* (- 2) (* s00 s r)) (* 36 (* r00 x00 r)) (* (- 54) (* r00 x)) ?x137 ?x1065 (* 54 (* x00 r)) ?x1104 (* (- 24) (* s00 r)) (* 24 (* r00 s)) (* (- 36) (* r00 r00 x)))))
 (let ((?x463 (* (- 3) s)))
 (let ((?x44 (* 3 s00)))
 (let ((?x1066 (* 4 ?x555)))
 (let ((?x1174 (* 18 ?x486)))
 (let ((?x1077 (+ (* 9 (* s r)) ?x1174 (* (- 9) ?x1305) (* (- 2) (* s s)) (* (- 18) (* x r)) (* (- 6) (* r00 s r)) (* 6 ?x494) ?x1066 (* (- 18) (* r00 x)) ?x44 (* (- 6) ?x857) (* 18 (* x00 r)) ?x463 (* (- 9) (* s00 r)) (* (- 2) (* s00 s)) (* 9 (* r00 s)) (* 6 (* r00 s00 r)))))
 (let ((?x434 (* 12 ?x433)))
 (let ((?x465 (* (- 6) x00)))
 (let ((?x56 (* 6 x)))
 (let ((?x464 (* (- 3) r00)))
 (let ((?x43 (* 3 r)))
 (let ((?x1464 (+ (* 2 (* s r)) (* (- 12) (* r00 r00 r)) ?x43 ?x44 ?x463 ?x464 (* 4 (* s00 r)) (* (- 6) ?x1305) ?x56 ?x465 ?x434)))
 (let ((?x263 (* r00 r00)))
 (let ((?x957 (* (- 3) ?x263)))
 (let ((?x242 (* (- 1) s)))
 (let (($x635 (= (+ s00 ?x242 (* 3 (* r r)) ?x957) 0)))
 (and $x635 (= ?x1464 0) (= ?x1077 0) (= ?x712 0) $x1227 $x860)))))))))))))))))))))))))))))))))))))))))))))))))))))))) :qid k!35))
 ))
 (let ((?x1410 (lambda ((r Int) (s Int) (x Int) )(let ((?x433 (* r00 r00 r00)))
 (let ((?x447 (* (- 12) ?x433)))
 (let ((?x390 (* s00 r00)))
 (let ((?x391 (* 6 ?x390)))
 (let ((?x363 (* r s00)))
 (let ((?x377 (* (- 4) ?x363)))
 (let ((?x313 (* r r00 r00)))
 (let ((?x314 (* 12 ?x313)))
 (let ((?x307 (* r s)))
 (let ((?x308 (* (- 2) ?x307)))
 (let ((?x263 (* r00 r00)))
 (let ((?x1392 (* 12 ?x263)))
 (let ((?x59 (* 6 x00)))
 (let ((?x48 (* 3 r00)))
 (let ((?x1530 (* (- 7) s00)))
 (let ((?x412 (* (- 6) x)))
 (let ((?x1592 (* 7 s)))
 (let ((?x954 (* (- 3) r)))
 (let ((?x386 (+ ?x954 ?x1592 ?x412 ?x1530 ?x48 ?x59 (* (- 12) (* r r)) ?x1392 ?x308 ?x314 ?x377 ?x391 ?x447)))
 (let ((?x213 (* 6 r)))
 (let ((?x1350 (+ 3 ?x213 s)))
 (let ((?x242 (* (- 1) s)))
 (let ((?x1549 (+ ?x242 x)))
 (let ((?x1310 (* x00 x00)))
 (let ((?x1340 (* (- 108) ?x1310)))
 (let ((?x1148 (* s00 s00 s00)))
 (let ((?x1339 (* (- 16) ?x1148)))
 (let ((?x1020 (* s00 r00 r00 r00)))
 (let ((?x1335 (* (- 216) ?x1020)))
 (let ((?x846 (* r00 r00 r00 x00)))
 (let ((?x847 (* 432 ?x846)))
 (let ((?x769 (* s00 x00)))
 (let ((?x1093 (* 108 ?x769)))
 (let ((?x695 (* s00 s00 r00 r00)))
 (let ((?x696 (* 36 ?x695)))
 (let ((?x632 (* s00 s00 r00)))
 (let ((?x976 (* 108 ?x632)))
 (let ((?x611 (* s00 r00 r00)))
 (let ((?x964 (* 36 ?x611)))
 (let ((?x555 (* s00 s00)))
 (let ((?x1329 (* (- 51) ?x555)))
 (let ((?x529 (* s r00 r00)))
 (let ((?x828 (* (- 36) ?x529)))
 (let ((?x486 (* r00 x00)))
 (let ((?x1326 (* (- 108) ?x486)))
 (let ((?x477 (* s00 r00 x00)))
 (let ((?x1325 (* (- 216) ?x477)))
 (let ((?x484 (* 54 ?x390)))
 (let ((?x951 (* (- 9) s00)))
 (let ((?x143 (* 9 s)))
 (let ((?x1341 (+ ?x143 ?x951 ?x484 ?x1325 ?x1326 (* (- 15) (* s s)) ?x828 ?x1329 (* (- 108) (* x s00)) (* 108 (* x r00)) (* 216 (* s r00 r00 r00)) ?x964 ?x976 (* 66 (* s s00)) (* (- 54) (* s r00)) (* (- 108) (* s x00)) ?x696 (* (- 108) (* s s00 r00)) (* 4 (* s s s)) ?x1093 (* 108 (* s x)) (* (- 108) (* x x)) ?x847 (* 12 (* s s s00)) ?x1335 (* (- 432) (* x r00 r00 r00)) (* 216 (* x s00 r00)) (* (- 36) (* s s r00 r00)) ?x1339 (* 216 (* x x00)) ?x1340)))
 (let (($x1342 (= ?x1341 0)))
 (let ((?x841 (* r00 r00 x00)))
 (let ((?x854 (* (- 36) ?x841)))
 (let ((?x770 (* 6 ?x769)))
 (let ((?x660 (* (- 2) ?x632)))
 (let ((?x880 (* (- 15) ?x555)))
 (let ((?x509 (* s s)))
 (let ((?x533 (* 3 ?x509)))
 (let ((?x515 (* (- 54) ?x486)))
 (let ((?x528 (* 24 ?x390)))
 (let ((?x1043 (+ ?x143 ?x951 (* (- 24) ?x307) (* 24 ?x363) ?x528 ?x515 ?x533 (* 54 (* r x)) (* 36 (* r x r00)) ?x828 ?x880 (* (- 6) (* x s00)) (* 54 (* x r00)) ?x964 (* 4 (* s s r00)) (* (- 54) (* r x00)) ?x660 (* 12 (* s s00)) (* (- 24) (* s r00)) (* (- 6) (* s x00)) (* (- 2) (* s s00 r00)) ?x770 (* 2 (* r s s)) (* 6 (* s x)) (* (- 4) (* r s00 s00)) ?x854 (* 2 (* r s s00)) (* (- 36) (* r r00 x00)) (* 36 (* x r00 r00)))))
 (let (($x1048 (= ?x1043 0)))
 (let ((?x612 (* 6 ?x611)))
 (let ((?x568 (* (- 4) ?x555)))
 (let ((?x510 (* 2 ?x509)))
 (let ((?x500 (* (- 18) ?x486)))
 (let ((?x505 (* 9 ?x390)))
 (let ((?x342 (* (- 3) s00)))
 (let ((?x47 (* 3 s)))
 (let ((?x709 (+ ?x47 ?x342 (* (- 9) ?x307) (* 9 ?x363) ?x505 ?x500 ?x510 (* 18 (* r x)) (* 6 (* r s r00)) (* (- 6) ?x529) ?x568 (* 18 (* x r00)) ?x612 (* (- 18) (* r x00)) (* 2 (* s s00)) (* (- 9) (* s r00)) (* (- 6) (* r s00 r00)))))
 (let (($x716 (= ?x709 0)))
 (let ((?x434 (* 12 ?x433)))
 (let ((?x468 (* (- 6) ?x390)))
 (let ((?x465 (* (- 6) x00)))
 (let ((?x464 (* (- 3) r00)))
 (let ((?x44 (* 3 s00)))
 (let ((?x56 (* 6 x)))
 (let ((?x463 (* (- 3) s)))
 (let ((?x43 (* 3 r)))
 (let ((?x469 (+ ?x43 ?x463 ?x56 ?x44 ?x464 ?x465 (* 2 ?x307) (* (- 12) ?x313) (* 4 ?x363) ?x468 ?x434)))
 (let (($x470 (= ?x469 0)))
 (let (($x296 (= (+ s (* (- 1) s00) (* (- 3) (* r r)) (* 3 ?x263)) 0)))
 (let (($x1368 (and $x296 $x470 $x716 $x1048 $x1342 (not (= (* (+ (- 1) (* ?x1549 ?x1350 ?x1350 ?x1350)) ?x386) 0)))))
 (let ((?x1305 (* r00 s00)))
 (let ((?x1306 (* 6 ?x1305)))
 (let ((?x1038 (+ 6 (* (- 2) (* (+ 1 r) (+ 3 s ?x213))) (* 12 (* r00 r00 (+ 1 r))) (* 15 r) ?x342 ?x143 ?x48 (* (- 4) (* s00 (+ 1 r))) ?x1306 ?x412 ?x59 ?x447)))
 (let ((?x1297 (+ 3 s ?x213)))
 (let (($x860 (not (= (* (+ (- 1) (* (+ x ?x242) ?x1297 ?x1297 ?x1297)) ?x1038) 0))))
 (let ((?x1204 (* 108 ?x1310)))
 (let ((?x1104 (* (- 9) s)))
 (let ((?x857 (* r00 r00 s00)))
 (let ((?x1065 (* (- 36) ?x857)))
 (let ((?x137 (* 9 s00)))
 (let ((?x872 (* 51 ?x555)))
 (let ((?x494 (* r00 r00 s)))
 (let ((?x1136 (* 36 ?x494)))
 (let ((?x715 (* 16 ?x1148)))
 (let ((?x836 (* (- 108) ?x769)))
 (let ((?x812 (* (- 432) ?x846)))
 (let ((?x343 (* 108 ?x486)))
 (let ((?x1221 (+ (* 216 (* r00 s00 x00)) ?x343 (* (- 54) ?x1305) (* 15 ?x509) (* (- 216) (* r00 r00 r00 s)) (* (- 36) (* r00 r00 s00 s00)) (* (- 4) (* s s s)) (* 108 (* x x)) ?x812 (* (- 12) (* s00 s s)) (* 108 (* s00 x)) (* (- 108) (* r00 s00 s00)) (* 216 (* r00 r00 r00 s00)) (* 108 (* x00 s)) (* 432 (* r00 r00 r00 x)) (* (- 66) (* s00 s)) (* 108 (* r00 s00 s)) ?x836 (* (- 216) (* r00 s00 x)) (* 36 (* r00 r00 s s)) ?x715 (* (- 108) (* x s)) ?x1136 ?x872 (* (- 108) (* r00 x)) ?x137 ?x1065 ?x1104 (* 54 (* r00 s)) (* (- 216) (* x00 x)) ?x1204)))
 (let (($x1227 (= ?x1221 0)))
 (let ((?x1083 (* 15 ?x555)))
 (let ((?x1081 (* 36 ?x841)))
 (let ((?x1067 (* (- 6) ?x769)))
 (let ((?x1567 (* 54 ?x486)))
 (let ((?x712 (+ (* 24 (* s r)) ?x1567 (* (- 36) (* r00 x r)) (* (- 24) ?x1305) (* (- 3) ?x509) (* (- 54) (* x r)) (* 6 (* s00 x)) (* (- 4) (* r00 s s)) (* 2 (* r00 s00 s00)) (* 6 (* x00 s)) (* (- 12) (* s00 s)) (* 2 (* r00 s00 s)) ?x1067 (* (- 2) (* s s r)) (* (- 6) (* x s)) (* 4 (* s00 s00 r)) ?x1136 ?x1081 ?x1083 (* (- 2) (* s00 s r)) (* 36 (* r00 x00 r)) (* (- 54) (* r00 x)) ?x137 ?x1065 (* 54 (* x00 r)) ?x1104 (* (- 24) (* s00 r)) (* 24 (* r00 s)) (* (- 36) (* r00 r00 x)))))
 (let ((?x1066 (* 4 ?x555)))
 (let ((?x1174 (* 18 ?x486)))
 (let ((?x1077 (+ (* 9 (* s r)) ?x1174 (* (- 9) ?x1305) (* (- 2) ?x509) (* (- 18) (* x r)) (* (- 6) (* r00 s r)) (* 6 ?x494) ?x1066 (* (- 18) (* r00 x)) ?x44 (* (- 6) ?x857) (* 18 (* x00 r)) ?x463 (* (- 9) (* s00 r)) (* (- 2) (* s00 s)) (* 9 (* r00 s)) (* 6 (* r00 s00 r)))))
 (let ((?x1464 (+ (* 2 (* s r)) (* (- 12) (* r00 r00 r)) ?x43 ?x44 ?x463 ?x464 (* 4 (* s00 r)) (* (- 6) ?x1305) ?x56 ?x465 ?x434)))
 (let (($x635 (= (+ s00 ?x242 (* 3 (* r r)) (* (- 3) ?x263)) 0)))
 (let (($x1232 (and $x635 (= ?x1464 0) (= ?x1077 0) (= ?x712 0) $x1227 $x860)))
 (rewrite (= $x1232 $x1368)))))))))))))))))))))))))))))))))))))))))))))))))))))))))))))))))))))))))))))))))))))))))))))))))))))))))))))))))))))
 ))
 (let (($x1471 (exists ((r Int) (s Int) (x Int) )(! (let ((?x433 (* r00 r00 r00)))
 (let ((?x447 (* (- 12) ?x433)))
 (let ((?x59 (* 6 x00)))
 (let ((?x412 (* (- 6) x)))
 (let ((?x1305 (* r00 s00)))
 (let ((?x1306 (* 6 ?x1305)))
 (let ((?x48 (* 3 r00)))
 (let ((?x143 (* 9 s)))
 (let ((?x342 (* (- 3) s00)))
 (let ((?x1038 (+ 6 (* (- 2) (* (+ 1 r) (+ 3 s (* 6 r)))) (* 12 (* r00 r00 (+ 1 r))) (* 15 r) ?x342 ?x143 ?x48 (* (- 4) (* s00 (+ 1 r))) ?x1306 ?x412 ?x59 ?x447)))
 (let ((?x213 (* 6 r)))
 (let ((?x1297 (+ 3 s ?x213)))
 (let (($x1054 (= (* (+ (- 1) (* (+ x (* (- 1) s)) ?x1297 ?x1297 ?x1297)) ?x1038) 0)))
 (let (($x860 (not $x1054)))
 (let ((?x1310 (* x00 x00)))
 (let ((?x1204 (* 108 ?x1310)))
 (let ((?x1104 (* (- 9) s)))
 (let ((?x857 (* r00 r00 s00)))
 (let ((?x1065 (* (- 36) ?x857)))
 (let ((?x137 (* 9 s00)))
 (let ((?x555 (* s00 s00)))
 (let ((?x872 (* 51 ?x555)))
 (let ((?x494 (* r00 r00 s)))
 (let ((?x1136 (* 36 ?x494)))
 (let ((?x1148 (* s00 s00 s00)))
 (let ((?x715 (* 16 ?x1148)))
 (let ((?x769 (* s00 x00)))
 (let ((?x836 (* (- 108) ?x769)))
 (let ((?x846 (* r00 r00 r00 x00)))
 (let ((?x812 (* (- 432) ?x846)))
 (let ((?x486 (* r00 x00)))
 (let ((?x343 (* 108 ?x486)))
 (let ((?x1221 (+ (* 216 (* r00 s00 x00)) ?x343 (* (- 54) ?x1305) (* 15 (* s s)) (* (- 216) (* r00 r00 r00 s)) (* (- 36) (* r00 r00 s00 s00)) (* (- 4) (* s s s)) (* 108 (* x x)) ?x812 (* (- 12) (* s00 s s)) (* 108 (* s00 x)) (* (- 108) (* r00 s00 s00)) (* 216 (* r00 r00 r00 s00)) (* 108 (* x00 s)) (* 432 (* r00 r00 r00 x)) (* (- 66) (* s00 s)) (* 108 (* r00 s00 s)) ?x836 (* (- 216) (* r00 s00 x)) (* 36 (* r00 r00 s s)) ?x715 (* (- 108) (* x s)) ?x1136 ?x872 (* (- 108) (* r00 x)) ?x137 ?x1065 ?x1104 (* 54 (* r00 s)) (* (- 216) (* x00 x)) ?x1204)))
 (let (($x1227 (= ?x1221 0)))
 (let ((?x951 (* (- 9) s00)))
 (let ((?x880 (* (- 15) ?x555)))
 (let ((?x841 (* r00 r00 x00)))
 (let ((?x854 (* (- 36) ?x841)))
 (let ((?x770 (* 6 ?x769)))
 (let ((?x509 (* s s)))
 (let ((?x533 (* 3 ?x509)))
 (let ((?x515 (* (- 54) ?x486)))
 (let ((?x874 (+ (* (- 24) (* s r)) ?x515 (* 36 (* r00 x r)) (* 24 ?x1305) ?x533 (* 54 (* x r)) (* (- 6) (* s00 x)) (* 4 (* r00 s s)) (* (- 2) (* r00 s00 s00)) (* (- 6) (* x00 s)) (* 12 (* s00 s)) (* (- 2) (* r00 s00 s)) ?x770 (* 2 (* s s r)) (* 6 (* x s)) (* (- 4) (* s00 s00 r)) (* (- 36) ?x494) ?x854 ?x880 (* 2 (* s00 s r)) (* (- 36) (* r00 x00 r)) (* 54 (* r00 x)) ?x951 (* 36 ?x857) (* (- 54) (* x00 r)) ?x143 (* 24 (* s00 r)) (* (- 24) (* r00 s)) (* 36 (* r00 r00 x)))))
 (let ((?x47 (* 3 s)))
 (let ((?x568 (* (- 4) ?x555)))
 (let ((?x510 (* 2 ?x509)))
 (let ((?x500 (* (- 18) ?x486)))
 (let ((?x753 (+ (* (- 9) (* s r)) ?x500 (* 9 ?x1305) ?x510 (* 18 (* x r)) (* 6 (* r00 s r)) (* (- 6) ?x494) ?x568 (* 18 (* r00 x)) ?x342 (* 6 ?x857) (* (- 18) (* x00 r)) ?x47 (* 9 (* s00 r)) (* 2 (* s00 s)) (* (- 9) (* r00 s)) (* (- 6) (* r00 s00 r)))))
 (let ((?x954 (* (- 3) r)))
 (let ((?x794 (+ (* (- 2) (* s r)) (* 12 (* r00 r00 r)) ?x954 ?x342 ?x47 ?x48 (* (- 4) (* s00 r)) ?x1306 ?x412 ?x59 ?x447)))
 (let ((?x263 (* r00 r00)))
 (let ((?x957 (* (- 3) ?x263)))
 (let ((?x242 (* (- 1) s)))
 (let (($x635 (= (+ s00 ?x242 (* 3 (* r r)) ?x957) 0)))
 (and $x635 (= ?x794 0) (= ?x753 0) (= ?x874 0) $x1227 $x860))))))))))))))))))))))))))))))))))))))))))))))))))))))) :qid k!35))
 ))
 (let ((?x713 (lambda ((r Int) (s Int) (x Int) )(let ((?x433 (* r00 r00 r00)))
 (let ((?x447 (* (- 12) ?x433)))
 (let ((?x59 (* 6 x00)))
 (let ((?x412 (* (- 6) x)))
 (let ((?x1305 (* r00 s00)))
 (let ((?x1306 (* 6 ?x1305)))
 (let ((?x48 (* 3 r00)))
 (let ((?x143 (* 9 s)))
 (let ((?x342 (* (- 3) s00)))
 (let ((?x1038 (+ 6 (* (- 2) (* (+ 1 r) (+ 3 s (* 6 r)))) (* 12 (* r00 r00 (+ 1 r))) (* 15 r) ?x342 ?x143 ?x48 (* (- 4) (* s00 (+ 1 r))) ?x1306 ?x412 ?x59 ?x447)))
 (let ((?x213 (* 6 r)))
 (let ((?x1297 (+ 3 s ?x213)))
 (let (($x1054 (= (* (+ (- 1) (* (+ x (* (- 1) s)) ?x1297 ?x1297 ?x1297)) ?x1038) 0)))
 (let (($x860 (not $x1054)))
 (let ((?x1310 (* x00 x00)))
 (let ((?x1204 (* 108 ?x1310)))
 (let ((?x1104 (* (- 9) s)))
 (let ((?x857 (* r00 r00 s00)))
 (let ((?x1065 (* (- 36) ?x857)))
 (let ((?x137 (* 9 s00)))
 (let ((?x555 (* s00 s00)))
 (let ((?x872 (* 51 ?x555)))
 (let ((?x494 (* r00 r00 s)))
 (let ((?x1136 (* 36 ?x494)))
 (let ((?x1148 (* s00 s00 s00)))
 (let ((?x715 (* 16 ?x1148)))
 (let ((?x769 (* s00 x00)))
 (let ((?x836 (* (- 108) ?x769)))
 (let ((?x846 (* r00 r00 r00 x00)))
 (let ((?x812 (* (- 432) ?x846)))
 (let ((?x486 (* r00 x00)))
 (let ((?x343 (* 108 ?x486)))
 (let ((?x1221 (+ (* 216 (* r00 s00 x00)) ?x343 (* (- 54) ?x1305) (* 15 (* s s)) (* (- 216) (* r00 r00 r00 s)) (* (- 36) (* r00 r00 s00 s00)) (* (- 4) (* s s s)) (* 108 (* x x)) ?x812 (* (- 12) (* s00 s s)) (* 108 (* s00 x)) (* (- 108) (* r00 s00 s00)) (* 216 (* r00 r00 r00 s00)) (* 108 (* x00 s)) (* 432 (* r00 r00 r00 x)) (* (- 66) (* s00 s)) (* 108 (* r00 s00 s)) ?x836 (* (- 216) (* r00 s00 x)) (* 36 (* r00 r00 s s)) ?x715 (* (- 108) (* x s)) ?x1136 ?x872 (* (- 108) (* r00 x)) ?x137 ?x1065 ?x1104 (* 54 (* r00 s)) (* (- 216) (* x00 x)) ?x1204)))
 (let (($x1227 (= ?x1221 0)))
 (let ((?x1083 (* 15 ?x555)))
 (let ((?x841 (* r00 r00 x00)))
 (let ((?x1081 (* 36 ?x841)))
 (let ((?x1067 (* (- 6) ?x769)))
 (let ((?x1567 (* 54 ?x486)))
 (let ((?x712 (+ (* 24 (* s r)) ?x1567 (* (- 36) (* r00 x r)) (* (- 24) ?x1305) (* (- 3) (* s s)) (* (- 54) (* x r)) (* 6 (* s00 x)) (* (- 4) (* r00 s s)) (* 2 (* r00 s00 s00)) (* 6 (* x00 s)) (* (- 12) (* s00 s)) (* 2 (* r00 s00 s)) ?x1067 (* (- 2) (* s s r)) (* (- 6) (* x s)) (* 4 (* s00 s00 r)) ?x1136 ?x1081 ?x1083 (* (- 2) (* s00 s r)) (* 36 (* r00 x00 r)) (* (- 54) (* r00 x)) ?x137 ?x1065 (* 54 (* x00 r)) ?x1104 (* (- 24) (* s00 r)) (* 24 (* r00 s)) (* (- 36) (* r00 r00 x)))))
 (let ((?x463 (* (- 3) s)))
 (let ((?x44 (* 3 s00)))
 (let ((?x1066 (* 4 ?x555)))
 (let ((?x1174 (* 18 ?x486)))
 (let ((?x1077 (+ (* 9 (* s r)) ?x1174 (* (- 9) ?x1305) (* (- 2) (* s s)) (* (- 18) (* x r)) (* (- 6) (* r00 s r)) (* 6 ?x494) ?x1066 (* (- 18) (* r00 x)) ?x44 (* (- 6) ?x857) (* 18 (* x00 r)) ?x463 (* (- 9) (* s00 r)) (* (- 2) (* s00 s)) (* 9 (* r00 s)) (* 6 (* r00 s00 r)))))
 (let ((?x434 (* 12 ?x433)))
 (let ((?x465 (* (- 6) x00)))
 (let ((?x56 (* 6 x)))
 (let ((?x464 (* (- 3) r00)))
 (let ((?x43 (* 3 r)))
 (let ((?x1464 (+ (* 2 (* s r)) (* (- 12) (* r00 r00 r)) ?x43 ?x44 ?x463 ?x464 (* 4 (* s00 r)) (* (- 6) ?x1305) ?x56 ?x465 ?x434)))
 (let ((?x263 (* r00 r00)))
 (let ((?x957 (* (- 3) ?x263)))
 (let ((?x242 (* (- 1) s)))
 (let (($x635 (= (+ s00 ?x242 (* 3 (* r r)) ?x957) 0)))
 (let (($x1232 (and $x635 (= ?x1464 0) (= ?x1077 0) (= ?x712 0) $x1227 $x860)))
 (let ((?x951 (* (- 9) s00)))
 (let ((?x880 (* (- 15) ?x555)))
 (let ((?x854 (* (- 36) ?x841)))
 (let ((?x770 (* 6 ?x769)))
 (let ((?x509 (* s s)))
 (let ((?x533 (* 3 ?x509)))
 (let ((?x515 (* (- 54) ?x486)))
 (let ((?x874 (+ (* (- 24) (* s r)) ?x515 (* 36 (* r00 x r)) (* 24 ?x1305) ?x533 (* 54 (* x r)) (* (- 6) (* s00 x)) (* 4 (* r00 s s)) (* (- 2) (* r00 s00 s00)) (* (- 6) (* x00 s)) (* 12 (* s00 s)) (* (- 2) (* r00 s00 s)) ?x770 (* 2 (* s s r)) (* 6 (* x s)) (* (- 4) (* s00 s00 r)) (* (- 36) ?x494) ?x854 ?x880 (* 2 (* s00 s r)) (* (- 36) (* r00 x00 r)) (* 54 (* r00 x)) ?x951 (* 36 ?x857) (* (- 54) (* x00 r)) ?x143 (* 24 (* s00 r)) (* (- 24) (* r00 s)) (* 36 (* r00 r00 x)))))
 (let ((?x47 (* 3 s)))
 (let ((?x568 (* (- 4) ?x555)))
 (let ((?x510 (* 2 ?x509)))
 (let ((?x500 (* (- 18) ?x486)))
 (let ((?x753 (+ (* (- 9) (* s r)) ?x500 (* 9 ?x1305) ?x510 (* 18 (* x r)) (* 6 (* r00 s r)) (* (- 6) ?x494) ?x568 (* 18 (* r00 x)) ?x342 (* 6 ?x857) (* (- 18) (* x00 r)) ?x47 (* 9 (* s00 r)) (* 2 (* s00 s)) (* (- 9) (* r00 s)) (* (- 6) (* r00 s00 r)))))
 (let ((?x954 (* (- 3) r)))
 (let ((?x794 (+ (* (- 2) (* s r)) (* 12 (* r00 r00 r)) ?x954 ?x342 ?x47 ?x48 (* (- 4) (* s00 r)) ?x1306 ?x412 ?x59 ?x447)))
 (let (($x393 (and $x635 (= ?x794 0) (= ?x753 0) (= ?x874 0) $x1227 $x860)))
 (rewrite (= $x393 $x1232)))))))))))))))))))))))))))))))))))))))))))))))))))))))))))))))))))))))))))
 ))
 (let (($x239 (exists ((r Int) (s Int) (x Int) )(! (let ((?x226 (- x s)))
 (let ((?x213 (* 6 r)))
 (let ((?x214 (+ s ?x213 3)))
 (let ((?x61 (* 12 r00 r00 r00)))
 (let ((?x59 (* 6 x00)))
 (let ((?x54 (* 6 r00 s00)))
 (let ((?x48 (* 3 r00)))
 (let ((?x44 (* 3 s00)))
 (let ((?x217 (+ (* (- 2) (+ r 1) ?x214) (* 12 (+ r 1) r00 r00))))
 (let ((?x224 (- (+ (- (- ?x217 (* 3 (+ r 1))) ?x44) (* 3 ?x214) ?x48) (* 4 (+ r 1) s00))))
 (let ((?x234 (* (- (+ (- (+ ?x224 ?x54) (* 6 ?x226)) ?x59) ?x61) (+ (- 1) (* ?x214 ?x214 ?x214 ?x226)))))
 (let ((?x143 (* 9 s)))
 (let ((?x139 (* 36 r00 r00 s00)))
 (let ((?x137 (* 9 s00)))
 (let ((?x123 (* 36 r00 r00 s)))
 (let ((?x157 (- (+ (* 216 r00 s00 x00) (* 108 r00 x00)) (* 54 r00 s00))))
 (let ((?x164 (- (- (+ ?x157 (* 15 s s)) (* 216 r00 r00 r00 s)) (* 36 r00 r00 s00 s00))))
 (let ((?x171 (- (+ (- ?x164 (* 4 s s s)) (* 108 x x)) (* 432 r00 r00 r00 x00))))
 (let ((?x176 (- (+ (- ?x171 (* 12 s s s00)) (* 108 s00 x)) (* 108 r00 s00 s00))))
 (let ((?x180 (+ ?x176 (* 216 r00 r00 r00 s00) (* 108 s x00) (* 432 r00 r00 r00 x))))
 (let ((?x188 (- (+ (- ?x180 (* 66 s s00)) (* 108 r00 s s00)) (* 108 s00 x00))))
 (let ((?x193 (+ (- ?x188 (* 216 r00 s00 x)) (* 36 r00 r00 s s) (* 16 s00 s00 s00))))
 (let ((?x200 (- (+ (- ?x193 (* 108 s x)) ?x123 (* 51 s00 s00)) (* 108 r00 x))))
 (let ((?x207 (- (+ (- (- (+ ?x200 ?x137) ?x139) ?x143) (* 54 r00 s)) (* 216 x x00))))
 (let ((?x105 (+ (- (* (- 24) r s) (* 54 r00 x00)) (* 36 r r00 x) (* 24 r00 s00) (* 3 s s) (* 54 r x))))
 (let ((?x112 (- (+ (- ?x105 (* 6 s00 x)) (* 4 r00 s s)) (* 2 r00 s00 s00))))
 (let ((?x117 (- (+ (- ?x112 (* 6 s x00)) (* 12 s s00)) (* 2 r00 s s00))))
 (let ((?x121 (+ ?x117 (* 6 s00 x00) (* 2 r s s) (* 6 s x))))
 (let ((?x129 (- (- (- ?x121 (* 4 r s00 s00)) ?x123) (* 36 r00 r00 x00))))
 (let ((?x134 (- (+ (- ?x129 (* 15 s00 s00)) (* 2 r s s00)) (* 36 r r00 x00))))
 (let ((?x142 (- (+ (- (+ ?x134 (* 54 r00 x)) ?x137) ?x139) (* 54 r x00))))
 (let ((?x149 (+ (- (+ ?x142 ?x143 (* 24 r s00)) (* 24 r00 s)) (* 36 r00 r00 x))))
 (let ((?x47 (* 3 s)))
 (let ((?x74 (+ (- (* (- 9) r s) (* 18 r00 x00)) (* 9 r00 s00) (* 2 s s) (* 18 r x) (* 6 r r00 s))))
 (let ((?x80 (+ (- (- ?x74 (* 6 r00 r00 s)) (* 4 s00 s00)) (* 18 r00 x))))
 (let ((?x85 (- (+ (- ?x80 ?x44) (* 6 r00 r00 s00)) (* 18 r x00))))
 (let ((?x91 (- (+ ?x85 ?x47 (* 9 r s00) (* 2 s s00)) (* 9 r00 s))))
 (let ((?x56 (* 6 x)))
 (let ((?x43 (* 3 r)))
 (let ((?x46 (- (- (+ (* (- 2) r s) (* 12 r r00 r00)) ?x43) ?x44)))
 (let ((?x60 (+ (- (+ (- (+ ?x46 ?x47 ?x48) (* 4 r s00)) ?x54) ?x56) ?x59)))
 (let (($x36 (= (- (+ (- s00 s) (* 3 r r)) (* 3 r00 r00)) 0)))
 (and $x36 (= (- ?x60 ?x61) 0) (= (- ?x91 (* 6 r r00 s00)) 0) (= ?x149 0) (= (+ ?x207 (* 108 x00 x00)) 0) (or (not (= ?x234 0)))))))))))))))))))))))))))))))))))))))))))))) :qid k!35))
 ))
 (let ((?x571 (lambda ((r Int) (s Int) (x Int) )(let ((?x433 (* r00 r00 r00)))
 (let ((?x447 (* (- 12) ?x433)))
 (let ((?x59 (* 6 x00)))
 (let ((?x412 (* (- 6) x)))
 (let ((?x1305 (* r00 s00)))
 (let ((?x1306 (* 6 ?x1305)))
 (let ((?x48 (* 3 r00)))
 (let ((?x143 (* 9 s)))
 (let ((?x342 (* (- 3) s00)))
 (let ((?x1038 (+ 6 (* (- 2) (* (+ 1 r) (+ 3 s (* 6 r)))) (* 12 (* r00 r00 (+ 1 r))) (* 15 r) ?x342 ?x143 ?x48 (* (- 4) (* s00 (+ 1 r))) ?x1306 ?x412 ?x59 ?x447)))
 (let ((?x213 (* 6 r)))
 (let ((?x1297 (+ 3 s ?x213)))
 (let (($x1054 (= (* (+ (- 1) (* (+ x (* (- 1) s)) ?x1297 ?x1297 ?x1297)) ?x1038) 0)))
 (let (($x860 (not $x1054)))
 (let ((?x1310 (* x00 x00)))
 (let ((?x1204 (* 108 ?x1310)))
 (let ((?x1104 (* (- 9) s)))
 (let ((?x857 (* r00 r00 s00)))
 (let ((?x1065 (* (- 36) ?x857)))
 (let ((?x137 (* 9 s00)))
 (let ((?x555 (* s00 s00)))
 (let ((?x872 (* 51 ?x555)))
 (let ((?x494 (* r00 r00 s)))
 (let ((?x1136 (* 36 ?x494)))
 (let ((?x1148 (* s00 s00 s00)))
 (let ((?x715 (* 16 ?x1148)))
 (let ((?x769 (* s00 x00)))
 (let ((?x836 (* (- 108) ?x769)))
 (let ((?x846 (* r00 r00 r00 x00)))
 (let ((?x812 (* (- 432) ?x846)))
 (let ((?x486 (* r00 x00)))
 (let ((?x343 (* 108 ?x486)))
 (let ((?x1221 (+ (* 216 (* r00 s00 x00)) ?x343 (* (- 54) ?x1305) (* 15 (* s s)) (* (- 216) (* r00 r00 r00 s)) (* (- 36) (* r00 r00 s00 s00)) (* (- 4) (* s s s)) (* 108 (* x x)) ?x812 (* (- 12) (* s00 s s)) (* 108 (* s00 x)) (* (- 108) (* r00 s00 s00)) (* 216 (* r00 r00 r00 s00)) (* 108 (* x00 s)) (* 432 (* r00 r00 r00 x)) (* (- 66) (* s00 s)) (* 108 (* r00 s00 s)) ?x836 (* (- 216) (* r00 s00 x)) (* 36 (* r00 r00 s s)) ?x715 (* (- 108) (* x s)) ?x1136 ?x872 (* (- 108) (* r00 x)) ?x137 ?x1065 ?x1104 (* 54 (* r00 s)) (* (- 216) (* x00 x)) ?x1204)))
 (let (($x1227 (= ?x1221 0)))
 (let ((?x951 (* (- 9) s00)))
 (let ((?x880 (* (- 15) ?x555)))
 (let ((?x841 (* r00 r00 x00)))
 (let ((?x854 (* (- 36) ?x841)))
 (let ((?x770 (* 6 ?x769)))
 (let ((?x509 (* s s)))
 (let ((?x533 (* 3 ?x509)))
 (let ((?x515 (* (- 54) ?x486)))
 (let ((?x874 (+ (* (- 24) (* s r)) ?x515 (* 36 (* r00 x r)) (* 24 ?x1305) ?x533 (* 54 (* x r)) (* (- 6) (* s00 x)) (* 4 (* r00 s s)) (* (- 2) (* r00 s00 s00)) (* (- 6) (* x00 s)) (* 12 (* s00 s)) (* (- 2) (* r00 s00 s)) ?x770 (* 2 (* s s r)) (* 6 (* x s)) (* (- 4) (* s00 s00 r)) (* (- 36) ?x494) ?x854 ?x880 (* 2 (* s00 s r)) (* (- 36) (* r00 x00 r)) (* 54 (* r00 x)) ?x951 (* 36 ?x857) (* (- 54) (* x00 r)) ?x143 (* 24 (* s00 r)) (* (- 24) (* r00 s)) (* 36 (* r00 r00 x)))))
 (let ((?x47 (* 3 s)))
 (let ((?x568 (* (- 4) ?x555)))
 (let ((?x510 (* 2 ?x509)))
 (let ((?x500 (* (- 18) ?x486)))
 (let ((?x753 (+ (* (- 9) (* s r)) ?x500 (* 9 ?x1305) ?x510 (* 18 (* x r)) (* 6 (* r00 s r)) (* (- 6) ?x494) ?x568 (* 18 (* r00 x)) ?x342 (* 6 ?x857) (* (- 18) (* x00 r)) ?x47 (* 9 (* s00 r)) (* 2 (* s00 s)) (* (- 9) (* r00 s)) (* (- 6) (* r00 s00 r)))))
 (let ((?x954 (* (- 3) r)))
 (let ((?x794 (+ (* (- 2) (* s r)) (* 12 (* r00 r00 r)) ?x954 ?x342 ?x47 ?x48 (* (- 4) (* s00 r)) ?x1306 ?x412 ?x59 ?x447)))
 (let ((?x263 (* r00 r00)))
 (let ((?x957 (* (- 3) ?x263)))
 (let ((?x242 (* (- 1) s)))
 (let (($x635 (= (+ s00 ?x242 (* 3 (* r r)) ?x957) 0)))
 (let (($x393 (and $x635 (= ?x794 0) (= ?x753 0) (= ?x874 0) $x1227 $x860)))
 (let ((?x226 (- x s)))
 (let ((?x214 (+ s ?x213 3)))
 (let ((?x61 (* 12 r00 r00 r00)))
 (let ((?x54 (* 6 r00 s00)))
 (let ((?x44 (* 3 s00)))
 (let ((?x217 (+ (* (- 2) (+ r 1) ?x214) (* 12 (+ r 1) r00 r00))))
 (let ((?x224 (- (+ (- (- ?x217 (* 3 (+ r 1))) ?x44) (* 3 ?x214) ?x48) (* 4 (+ r 1) s00))))
 (let ((?x234 (* (- (+ (- (+ ?x224 ?x54) (* 6 ?x226)) ?x59) ?x61) (+ (- 1) (* ?x214 ?x214 ?x214 ?x226)))))
 (let ((?x139 (* 36 r00 r00 s00)))
 (let ((?x123 (* 36 r00 r00 s)))
 (let ((?x157 (- (+ (* 216 r00 s00 x00) (* 108 r00 x00)) (* 54 r00 s00))))
 (let ((?x164 (- (- (+ ?x157 (* 15 s s)) (* 216 r00 r00 r00 s)) (* 36 r00 r00 s00 s00))))
 (let ((?x171 (- (+ (- ?x164 (* 4 s s s)) (* 108 x x)) (* 432 r00 r00 r00 x00))))
 (let ((?x176 (- (+ (- ?x171 (* 12 s s s00)) (* 108 s00 x)) (* 108 r00 s00 s00))))
 (let ((?x180 (+ ?x176 (* 216 r00 r00 r00 s00) (* 108 s x00) (* 432 r00 r00 r00 x))))
 (let ((?x188 (- (+ (- ?x180 (* 66 s s00)) (* 108 r00 s s00)) (* 108 s00 x00))))
 (let ((?x193 (+ (- ?x188 (* 216 r00 s00 x)) (* 36 r00 r00 s s) (* 16 s00 s00 s00))))
 (let ((?x200 (- (+ (- ?x193 (* 108 s x)) ?x123 (* 51 s00 s00)) (* 108 r00 x))))
 (let ((?x207 (- (+ (- (- (+ ?x200 ?x137) ?x139) ?x143) (* 54 r00 s)) (* 216 x x00))))
 (let ((?x105 (+ (- (* (- 24) r s) (* 54 r00 x00)) (* 36 r r00 x) (* 24 r00 s00) (* 3 s s) (* 54 r x))))
 (let ((?x112 (- (+ (- ?x105 (* 6 s00 x)) (* 4 r00 s s)) (* 2 r00 s00 s00))))
 (let ((?x117 (- (+ (- ?x112 (* 6 s x00)) (* 12 s s00)) (* 2 r00 s s00))))
 (let ((?x121 (+ ?x117 (* 6 s00 x00) (* 2 r s s) (* 6 s x))))
 (let ((?x129 (- (- (- ?x121 (* 4 r s00 s00)) ?x123) (* 36 r00 r00 x00))))
 (let ((?x134 (- (+ (- ?x129 (* 15 s00 s00)) (* 2 r s s00)) (* 36 r r00 x00))))
 (let ((?x142 (- (+ (- (+ ?x134 (* 54 r00 x)) ?x137) ?x139) (* 54 r x00))))
 (let ((?x149 (+ (- (+ ?x142 ?x143 (* 24 r s00)) (* 24 r00 s)) (* 36 r00 r00 x))))
 (let ((?x74 (+ (- (* (- 9) r s) (* 18 r00 x00)) (* 9 r00 s00) (* 2 s s) (* 18 r x) (* 6 r r00 s))))
 (let ((?x80 (+ (- (- ?x74 (* 6 r00 r00 s)) (* 4 s00 s00)) (* 18 r00 x))))
 (let ((?x85 (- (+ (- ?x80 ?x44) (* 6 r00 r00 s00)) (* 18 r x00))))
 (let ((?x91 (- (+ ?x85 ?x47 (* 9 r s00) (* 2 s s00)) (* 9 r00 s))))
 (let ((?x56 (* 6 x)))
 (let ((?x43 (* 3 r)))
 (let ((?x46 (- (- (+ (* (- 2) r s) (* 12 r r00 r00)) ?x43) ?x44)))
 (let ((?x60 (+ (- (+ (- (+ ?x46 ?x47 ?x48) (* 4 r s00)) ?x54) ?x56) ?x59)))
 (let (($x36 (= (- (+ (- s00 s) (* 3 r r)) (* 3 r00 r00)) 0)))
 (let (($x238 (and $x36 (= (- ?x60 ?x61) 0) (= (- ?x91 (* 6 r r00 s00)) 0) (= ?x149 0) (= (+ ?x207 (* 108 x00 x00)) 0) (or (not (= ?x234 0))))))
 (rewrite (= $x238 $x393)))))))))))))))))))))))))))))))))))))))))))))))))))))))))))))))))))))))))))))))))))))))))))))))
 ))
 (let ((@x240 (asserted $x239)))
 (let ((@x745 (mp (mp @x240 (quant-intro (proof-bind ?x571) (= $x239 $x1471)) $x1471) (rewrite (= $x1471 $x1471)) $x1471)))
 (let ((@x1170 (mp (mp @x745 (quant-intro (proof-bind ?x713) (= $x1471 $x704)) $x704) (quant-intro (proof-bind ?x1410) (= $x704 $x595)) $x595)))
 (let ((@x345 (mp (mp~ @x1170 (sk (~ $x595 $x779)) $x779) (rewrite (= $x779 $x900)) $x900)))
 (let ((@x492 (and-elim @x345 $x995)))
 (let ((@x1445 (unit-resolution ((_ th-lemma arith triangle-eq) (or (not $x995) $x980)) @x492 $x980)))
 (let (($x1585 (>= ?x284 0)))
 (let ((@x906 (and-elim @x345 $x503)))
 (let ((@x829 (unit-resolution ((_ th-lemma arith triangle-eq) (or (not $x503) $x1585)) @x906 $x1585)))
 (let (($x999 (<= ?x974 0)))
 (let ((@x830 (unit-resolution ((_ th-lemma arith triangle-eq) (or (not $x995) $x999)) @x492 $x999)))
 (let (($x1364 (<= ?x284 0)))
 (let ((@x629 (unit-resolution ((_ th-lemma arith triangle-eq) (or (not $x503) $x1364)) @x906 $x1364)))
 (let (($x731 (not (<= ?x1439 0))))
 (let (($x845 (>= ?x1439 0)))
 (let ((@x975 (lemma ((_ th-lemma arith farkas 1 1 1 1 1) (hypothesis (not $x845)) @x629 @x830 @x829 @x1445 false) $x845)))
 (let ((@x1034 (unit-resolution ((_ th-lemma arith triangle-eq) (or $x482 $x731 (not $x845))) (and-elim @x345 $x1552) (or $x731 (not $x845)))))
 ((_ th-lemma arith farkas 1 1 1 1 1) (unit-resolution @x1034 @x975 $x731) @x629 @x830 @x829 @x1445 false)))))))))))))))))))))))))))))))))))))))))))))))))))))))))))))))))))))))))))))))))))))))))))))))))))))))))))))))))))))))))))))))))))

(:added-eqs                 5
 :arith-assert-diseq        1
 :arith-assert-lower        27
 :arith-assert-upper        10
 :arith-conflicts           2
 :arith-eq-adapter          6
 :arith-fixed-eqs           2
 :arith-max-min             234
 :arith-nonlinear-bounds    16
 :arith-num-rows            9
 :arith-pivots              5
 :arith-pseudo-nonlinear    2
 :arith-row-summations      9
 :arith-tableau-max-columns 97
 :arith-tableau-max-rows    9
 :conflicts                 2
 :decisions                 1
 :del-clause                19
 :final-checks              2
 :max-memory                3.94
 :memory                    3.33
 :mk-bool-var               24
 :mk-clause                 19
 :num-allocs                1327096
 :num-checks                1
 :propagations              12
 :rlimit-count              8317
 :time                      0.01
 :total-time                0.02)
